p edge 50 223
e 1 6
e 1 14
e 1 18
e 1 25
e 1 26
e 1 36
e 1 40
e 2 14
e 2 21
e 2 28
e 2 35
e 2 41
e 2 44
e 3 22
e 3 25
e 3 26
e 3 32
e 3 33
e 3 34
e 3 37
e 3 45
e 4 7
e 4 8
e 4 13
e 4 26
e 4 29
e 4 36
e 4 41
e 4 44
e 5 7
e 5 13
e 5 17
e 5 20
e 5 31
e 5 32
e 5 40
e 5 42
e 5 46
e 5 50
e 6 11
e 6 13
e 6 14
e 6 44
e 7 10
e 7 12
e 7 14
e 7 19
e 7 20
e 7 29
e 7 31
e 7 34
e 7 43
e 8 19
e 8 20
e 8 22
e 8 29
e 8 39
e 8 45
e 8 47
e 8 48
e 9 13
e 9 14
e 9 18
e 9 20
e 9 23
e 9 33
e 9 38
e 9 49
e 10 14
e 10 15
e 10 22
e 10 31
e 10 38
e 10 39
e 10 42
e 10 49
e 11 14
e 11 22
e 11 28
e 11 37
e 11 40
e 11 46
e 11 47
e 12 15
e 12 19
e 12 27
e 12 29
e 12 34
e 12 43
e 12 48
e 13 18
e 13 20
e 13 24
e 13 25
e 13 28
e 13 30
e 13 37
e 13 46
e 13 48
e 13 49
e 13 50
e 14 15
e 14 28
e 14 35
e 14 45
e 15 31
e 15 35
e 15 41
e 16 26
e 16 31
e 16 50
e 17 19
e 17 20
e 17 26
e 17 29
e 17 31
e 17 37
e 17 38
e 17 39
e 17 40
e 17 44
e 17 50
e 18 21
e 18 25
e 18 34
e 18 39
e 18 44
e 18 49
e 19 26
e 19 27
e 19 31
e 19 35
e 19 48
e 20 24
e 20 40
e 20 41
e 20 46
e 20 50
e 21 25
e 21 27
e 21 32
e 21 37
e 22 28
e 22 29
e 22 35
e 22 36
e 22 43
e 22 48
e 22 49
e 22 50
e 23 31
e 23 35
e 23 45
e 23 46
e 23 50
e 24 31
e 24 41
e 24 50
e 25 40
e 25 44
e 25 47
e 26 31
e 26 32
e 26 41
e 26 46
e 26 49
e 27 32
e 27 33
e 27 41
e 27 42
e 27 43
e 28 29
e 28 32
e 28 36
e 28 40
e 28 42
e 28 45
e 29 30
e 29 31
e 29 40
e 29 43
e 30 34
e 30 37
e 30 40
e 30 47
e 31 39
e 31 43
e 31 48
e 32 40
e 32 42
e 32 44
e 32 49
e 33 34
e 33 36
e 33 38
e 34 36
e 34 37
e 34 41
e 34 43
e 34 44
e 34 46
e 35 47
e 36 43
e 36 47
e 37 38
e 37 40
e 37 47
e 38 50
e 39 41
e 39 42
e 39 44
e 40 44
e 41 42
e 41 45
e 43 45
e 43 47
e 43 48
e 43 49
e 44 45
e 44 49
e 45 46
e 46 49
e 48 50